VER
4

OBJSENSE
MIN

VAR
1297 1
F 1297

CON
2629 3
HVECQRE 1153
HVECPSD 1296
L= 180

OBJACOORD
1
0 1.0

ACOORD
2254
0 0 1.0
1 625 0.5
2 603 0.5
3 604 -0.5
4 196 0.5
5 607 0.5
6 608 -0.5
7 252 0.5
8 253 0.5
9 256 0.5
10 674 0.5
11 675 0.5
12 652 0.5
13 653 0.5
14 656 0.5
15 657 0.5
16 676 0.5
17 609 0.5
18 610 -0.5
19 283 0.5
20 284 0.5
21 287 0.5
22 288 0.5
23 658 0.5
24 659 -0.5
25 289 0.5
36 961 0.5
37 778 0.5
38 779 0.5
39 756 0.5
40 757 0.5
41 760 0.5
42 761 0.5
43 780 0.5
44 781 0.5
45 762 0.5
46 763 0.5
49 784 0.5
60 913 0.5
61 914 -0.5
64 49 0.5
65 833 0.5
66 834 0.5
67 811 0.5
68 812 0.5
69 815 0.5
70 816 0.5
71 835 0.5
72 836 0.5
73 817 0.5
74 818 0.5
77 839 0.5
78 840 0.5
81 841 0.5
92 1022 0.5
93 1023 0.5
96 974 0.5
97 975 0.5
100 1024 0.5
101 577 0.5
102 578 -0.5
103 170 0.5
104 171 -0.5
105 226 0.5
106 227 -0.5
107 626 0.5
108 627 -0.5
109 257 0.5
110 258 -0.5
113 730 0.5
114 731 -0.5
117 785 0.5
118 786 -0.5
121 1 0.5
132 919 0.5
133 920 -0.5
136 94 0.5
137 95 0.5
140 980 0.5
141 981 -0.5
144 100 0.5
155 915 0.5
156 916 -0.5
159 62 0.5
160 63 0.5
163 976 0.5
164 977 -0.5
167 96 0.5
168 97 -0.5
169 64 0.5
180 921 0.5
181 922 -0.5
184 113 0.5
185 114 0.5
188 982 0.5
189 983 -0.5
192 119 0.5
193 120 0.5
194 115 0.5
195 116 0.5
196 121 0.5
197 583 0.5
198 584 -0.5
199 176 0.5
200 177 -0.5
201 232 0.5
202 233 -0.5
203 632 0.5
204 633 -0.5
205 263 0.5
206 264 -0.5
209 736 0.5
210 737 -0.5
213 791 0.5
214 792 -0.5
217 10 0.5
218 11 0.5
225 16 0.5
226 601 0.5
227 602 -0.5
228 194 0.5
229 195 -0.5
230 250 0.5
231 251 -0.5
232 650 0.5
233 651 -0.5
234 281 0.5
235 282 -0.5
238 754 0.5
239 755 -0.5
242 809 0.5
243 810 -0.5
246 145 0.5
247 146 0.5
254 151 0.5
255 152 0.5
256 169 0.5
257 585 0.5
258 586 -0.5
259 178 0.5
260 179 -0.5
261 234 0.5
262 235 -0.5
263 634 0.5
264 635 -0.5
265 265 0.5
266 266 -0.5
269 738 0.5
270 739 -0.5
273 793 0.5
274 794 -0.5
277 17 0.5
278 18 0.5
285 23 0.5
286 24 0.5
287 153 0.5
288 154 -0.5
289 25 0.5
300 943 0.5
301 944 -0.5
304 454 0.5
305 455 0.5
308 1004 0.5
309 1005 -0.5
312 460 0.5
313 461 0.5
314 456 0.5
315 457 0.5
316 462 0.5
317 463 0.5
324 484 0.5
335 937 0.5
336 938 -0.5
339 337 0.5
340 338 0.5
343 998 0.5
344 999 -0.5
347 343 0.5
348 344 0.5
349 339 0.5
350 340 0.5
351 345 0.5
352 346 0.5
359 478 0.5
360 479 -0.5
361 361 0.5
372 1150 0.5
373 1151 0.5
376 1102 0.5
377 1103 0.5
380 1152 0.5
381 1153 0.5
384 1108 0.5
385 1109 0.5
386 1104 0.5
387 1105 0.5
388 1110 0.5
389 1111 0.5
396 1132 0.5
397 1133 0.5
398 1126 0.5
399 1127 0.5
400 1156 0.5
411 945 0.5
412 946 -0.5
415 497 0.5
416 498 0.5
419 1006 0.5
420 1007 -0.5
423 503 0.5
424 504 0.5
425 499 0.5
426 500 0.5
427 505 0.5
428 506 0.5
435 527 0.5
436 528 0.5
437 521 0.5
438 522 0.5
439 1134 0.5
440 1135 -0.5
441 529 0.5
452 1217 0.5
453 1218 0.5
456 1169 0.5
457 1170 0.5
460 1219 0.5
461 1220 0.5
464 1175 0.5
465 1176 0.5
466 1171 0.5
467 1172 0.5
468 1177 0.5
469 1178 0.5
476 1199 0.5
477 1200 0.5
478 1193 0.5
479 1194 0.5
480 1223 0.5
481 1224 0.5
482 1201 0.5
483 1202 0.5
484 1225 0.5
485 579 0.5
486 580 -0.5
487 172 0.5
488 173 -0.5
489 228 0.5
490 229 -0.5
491 628 0.5
492 629 -0.5
493 259 0.5
494 260 -0.5
497 732 0.5
498 733 -0.5
501 787 0.5
502 788 -0.5
505 2 0.5
506 3 0.5
513 12 0.5
514 13 -0.5
515 147 0.5
516 148 -0.5
517 19 0.5
518 20 -0.5
529 4 0.5
540 939 0.5
541 940 -0.5
544 374 0.5
545 375 0.5
548 1000 0.5
549 1001 -0.5
552 380 0.5
553 381 0.5
554 376 0.5
555 377 0.5
556 382 0.5
557 383 0.5
564 480 0.5
565 481 -0.5
566 398 0.5
567 399 0.5
568 1128 0.5
569 1129 -0.5
570 523 0.5
571 524 -0.5
572 1195 0.5
573 1196 -0.5
576 400 0.5
577 625 0.5
578 603 0.5
579 604 -0.5
580 196 0.5
585 256 0.5
586 674 0.5
587 675 0.5
588 652 0.5
589 653 0.5
592 676 0.5
597 287 0.5
598 288 0.5
601 289 0.5
612 961 0.5
617 760 0.5
618 761 0.5
621 762 0.5
622 763 0.5
625 784 0.5
636 913 0.5
637 914 -0.5
640 49 0.5
645 815 0.5
646 816 0.5
649 817 0.5
650 818 0.5
653 839 0.5
654 840 0.5
657 841 0.5
668 1022 0.5
669 1023 0.5
672 974 0.5
673 975 0.5
676 1024 0.5
677 577 0.5
678 578 -0.5
679 170 0.5
680 171 -0.5
683 626 0.5
684 627 -0.5
697 1 0.5
720 100 0.5
731 915 0.5
732 916 -0.5
735 62 0.5
736 63 0.5
739 976 0.5
740 977 -0.5
745 64 0.5
768 119 0.5
769 120 0.5
772 121 0.5
777 232 0.5
778 233 -0.5
781 263 0.5
782 264 -0.5
785 736 0.5
786 737 -0.5
789 791 0.5
790 792 -0.5
801 16 0.5
802 601 0.5
803 602 -0.5
804 194 0.5
805 195 -0.5
808 650 0.5
809 651 -0.5
822 145 0.5
823 146 0.5
832 169 0.5
837 234 0.5
838 235 -0.5
841 265 0.5
842 266 -0.5
845 738 0.5
846 739 -0.5
849 793 0.5
850 794 -0.5
861 23 0.5
862 24 0.5
865 25 0.5
888 460 0.5
889 461 0.5
892 462 0.5
893 463 0.5
900 484 0.5
911 937 0.5
912 938 -0.5
915 337 0.5
916 338 0.5
919 998 0.5
920 999 -0.5
925 339 0.5
926 340 0.5
937 361 0.5
960 1108 0.5
961 1109 0.5
964 1110 0.5
965 1111 0.5
972 1132 0.5
973 1133 0.5
976 1156 0.5
999 503 0.5
1000 504 0.5
1003 505 0.5
1004 506 0.5
1011 527 0.5
1012 528 0.5
1015 1134 0.5
1016 1135 -0.5
1017 529 0.5
1040 1175 0.5
1041 1176 0.5
1044 1177 0.5
1045 1178 0.5
1052 1199 0.5
1053 1200 0.5
1056 1223 0.5
1057 1224 0.5
1058 1201 0.5
1059 1202 0.5
1060 1225 0.5
1061 579 0.5
1062 580 -0.5
1063 172 0.5
1064 173 -0.5
1067 628 0.5
1068 629 -0.5
1081 2 0.5
1082 3 0.5
1091 147 0.5
1092 148 -0.5
1105 4 0.5
1116 939 0.5
1117 940 -0.5
1120 374 0.5
1121 375 0.5
1124 1000 0.5
1125 1001 -0.5
1130 376 0.5
1131 377 0.5
1142 398 0.5
1143 399 0.5
1152 400 0.5
1153 1 1.0
1154 2 1.0
1155 3 1.0
1156 4 1.0
1157 5 1.0
1158 6 1.0
1159 7 1.0
1160 8 1.0
1161 9 1.0
1162 10 1.0
1163 11 1.0
1164 12 1.0
1165 13 1.0
1166 14 1.0
1167 15 1.0
1168 16 1.0
1169 17 1.0
1170 18 1.0
1171 19 1.0
1172 20 1.0
1173 21 1.0
1174 22 1.0
1175 23 1.0
1176 24 1.0
1177 25 1.0
1178 26 1.0
1179 27 1.0
1180 28 1.0
1181 29 1.0
1182 30 1.0
1183 31 1.0
1184 32 1.0
1185 33 1.0
1186 34 1.0
1187 35 1.0
1188 36 1.0
1189 37 1.0
1190 38 1.0
1191 39 1.0
1192 40 1.0
1193 41 1.0
1194 42 1.0
1195 43 1.0
1196 44 1.0
1197 45 1.0
1198 46 1.0
1199 47 1.0
1200 48 1.0
1201 49 1.0
1202 50 1.0
1203 51 1.0
1204 52 1.0
1205 53 1.0
1206 54 1.0
1207 55 1.0
1208 56 1.0
1209 57 1.0
1210 58 1.0
1211 59 1.0
1212 60 1.0
1213 61 1.0
1214 62 1.0
1215 63 1.0
1216 64 1.0
1217 65 1.0
1218 66 1.0
1219 67 1.0
1220 68 1.0
1221 69 1.0
1222 70 1.0
1223 71 1.0
1224 72 1.0
1225 73 1.0
1226 74 1.0
1227 75 1.0
1228 76 1.0
1229 77 1.0
1230 78 1.0
1231 79 1.0
1232 80 1.0
1233 81 1.0
1234 82 1.0
1235 83 1.0
1236 84 1.0
1237 85 1.0
1238 86 1.0
1239 87 1.0
1240 88 1.0
1241 89 1.0
1242 90 1.0
1243 91 1.0
1244 92 1.0
1245 93 1.0
1246 94 1.0
1247 95 1.0
1248 96 1.0
1249 97 1.0
1250 98 1.0
1251 99 1.0
1252 100 1.0
1253 101 1.0
1254 102 1.0
1255 103 1.0
1256 104 1.0
1257 105 1.0
1258 106 1.0
1259 107 1.0
1260 108 1.0
1261 109 1.0
1262 110 1.0
1263 111 1.0
1264 112 1.0
1265 113 1.0
1266 114 1.0
1267 115 1.0
1268 116 1.0
1269 117 1.0
1270 118 1.0
1271 119 1.0
1272 120 1.0
1273 121 1.0
1274 122 1.0
1275 123 1.0
1276 124 1.0
1277 125 1.0
1278 126 1.0
1279 127 1.0
1280 128 1.0
1281 129 1.0
1282 130 1.0
1283 131 1.0
1284 132 1.0
1285 133 1.0
1286 134 1.0
1287 135 1.0
1288 136 1.0
1289 137 1.0
1290 138 1.0
1291 139 1.0
1292 140 1.0
1293 141 1.0
1294 142 1.0
1295 143 1.0
1296 144 1.0
1297 145 1.0
1298 146 1.0
1299 147 1.0
1300 148 1.0
1301 149 1.0
1302 150 1.0
1303 151 1.0
1304 152 1.0
1305 153 1.0
1306 154 1.0
1307 155 1.0
1308 156 1.0
1309 157 1.0
1310 158 1.0
1311 159 1.0
1312 160 1.0
1313 161 1.0
1314 162 1.0
1315 163 1.0
1316 164 1.0
1317 165 1.0
1318 166 1.0
1319 167 1.0
1320 168 1.0
1321 169 1.0
1322 170 1.0
1323 171 1.0
1324 172 1.0
1325 173 1.0
1326 174 1.0
1327 175 1.0
1328 176 1.0
1329 177 1.0
1330 178 1.0
1331 179 1.0
1332 180 1.0
1333 181 1.0
1334 182 1.0
1335 183 1.0
1336 184 1.0
1337 185 1.0
1338 186 1.0
1339 187 1.0
1340 188 1.0
1341 189 1.0
1342 190 1.0
1343 191 1.0
1344 192 1.0
1345 193 1.0
1346 194 1.0
1347 195 1.0
1348 196 1.0
1349 197 1.0
1350 198 1.0
1351 199 1.0
1352 200 1.0
1353 201 1.0
1354 202 1.0
1355 203 1.0
1356 204 1.0
1357 205 1.0
1358 206 1.0
1359 207 1.0
1360 208 1.0
1361 209 1.0
1362 210 1.0
1363 211 1.0
1364 212 1.0
1365 213 1.0
1366 214 1.0
1367 215 1.0
1368 216 1.0
1369 217 1.0
1370 218 1.0
1371 219 1.0
1372 220 1.0
1373 221 1.0
1374 222 1.0
1375 223 1.0
1376 224 1.0
1377 225 1.0
1378 226 1.0
1379 227 1.0
1380 228 1.0
1381 229 1.0
1382 230 1.0
1383 231 1.0
1384 232 1.0
1385 233 1.0
1386 234 1.0
1387 235 1.0
1388 236 1.0
1389 237 1.0
1390 238 1.0
1391 239 1.0
1392 240 1.0
1393 241 1.0
1394 242 1.0
1395 243 1.0
1396 244 1.0
1397 245 1.0
1398 246 1.0
1399 247 1.0
1400 248 1.0
1401 249 1.0
1402 250 1.0
1403 251 1.0
1404 252 1.0
1405 253 1.0
1406 254 1.0
1407 255 1.0
1408 256 1.0
1409 257 1.0
1410 258 1.0
1411 259 1.0
1412 260 1.0
1413 261 1.0
1414 262 1.0
1415 263 1.0
1416 264 1.0
1417 265 1.0
1418 266 1.0
1419 267 1.0
1420 268 1.0
1421 269 1.0
1422 270 1.0
1423 271 1.0
1424 272 1.0
1425 273 1.0
1426 274 1.0
1427 275 1.0
1428 276 1.0
1429 277 1.0
1430 278 1.0
1431 279 1.0
1432 280 1.0
1433 281 1.0
1434 282 1.0
1435 283 1.0
1436 284 1.0
1437 285 1.0
1438 286 1.0
1439 287 1.0
1440 288 1.0
1441 289 1.0
1442 290 1.0
1443 291 1.0
1444 292 1.0
1445 293 1.0
1446 294 1.0
1447 295 1.0
1448 296 1.0
1449 297 1.0
1450 298 1.0
1451 299 1.0
1452 300 1.0
1453 301 1.0
1454 302 1.0
1455 303 1.0
1456 304 1.0
1457 305 1.0
1458 306 1.0
1459 307 1.0
1460 308 1.0
1461 309 1.0
1462 310 1.0
1463 311 1.0
1464 312 1.0
1465 313 1.0
1466 314 1.0
1467 315 1.0
1468 316 1.0
1469 317 1.0
1470 318 1.0
1471 319 1.0
1472 320 1.0
1473 321 1.0
1474 322 1.0
1475 323 1.0
1476 324 1.0
1477 325 1.0
1478 326 1.0
1479 327 1.0
1480 328 1.0
1481 329 1.0
1482 330 1.0
1483 331 1.0
1484 332 1.0
1485 333 1.0
1486 334 1.0
1487 335 1.0
1488 336 1.0
1489 337 1.0
1490 338 1.0
1491 339 1.0
1492 340 1.0
1493 341 1.0
1494 342 1.0
1495 343 1.0
1496 344 1.0
1497 345 1.0
1498 346 1.0
1499 347 1.0
1500 348 1.0
1501 349 1.0
1502 350 1.0
1503 351 1.0
1504 352 1.0
1505 353 1.0
1506 354 1.0
1507 355 1.0
1508 356 1.0
1509 357 1.0
1510 358 1.0
1511 359 1.0
1512 360 1.0
1513 361 1.0
1514 362 1.0
1515 363 1.0
1516 364 1.0
1517 365 1.0
1518 366 1.0
1519 367 1.0
1520 368 1.0
1521 369 1.0
1522 370 1.0
1523 371 1.0
1524 372 1.0
1525 373 1.0
1526 374 1.0
1527 375 1.0
1528 376 1.0
1529 377 1.0
1530 378 1.0
1531 379 1.0
1532 380 1.0
1533 381 1.0
1534 382 1.0
1535 383 1.0
1536 384 1.0
1537 385 1.0
1538 386 1.0
1539 387 1.0
1540 388 1.0
1541 389 1.0
1542 390 1.0
1543 391 1.0
1544 392 1.0
1545 393 1.0
1546 394 1.0
1547 395 1.0
1548 396 1.0
1549 397 1.0
1550 398 1.0
1551 399 1.0
1552 400 1.0
1553 401 1.0
1554 402 1.0
1555 403 1.0
1556 404 1.0
1557 405 1.0
1558 406 1.0
1559 407 1.0
1560 408 1.0
1561 409 1.0
1562 410 1.0
1563 411 1.0
1564 412 1.0
1565 413 1.0
1566 414 1.0
1567 415 1.0
1568 416 1.0
1569 417 1.0
1570 418 1.0
1571 419 1.0
1572 420 1.0
1573 421 1.0
1574 422 1.0
1575 423 1.0
1576 424 1.0
1577 425 1.0
1578 426 1.0
1579 427 1.0
1580 428 1.0
1581 429 1.0
1582 430 1.0
1583 431 1.0
1584 432 1.0
1585 433 1.0
1586 434 1.0
1587 435 1.0
1588 436 1.0
1589 437 1.0
1590 438 1.0
1591 439 1.0
1592 440 1.0
1593 441 1.0
1594 442 1.0
1595 443 1.0
1596 444 1.0
1597 445 1.0
1598 446 1.0
1599 447 1.0
1600 448 1.0
1601 449 1.0
1602 450 1.0
1603 451 1.0
1604 452 1.0
1605 453 1.0
1606 454 1.0
1607 455 1.0
1608 456 1.0
1609 457 1.0
1610 458 1.0
1611 459 1.0
1612 460 1.0
1613 461 1.0
1614 462 1.0
1615 463 1.0
1616 464 1.0
1617 465 1.0
1618 466 1.0
1619 467 1.0
1620 468 1.0
1621 469 1.0
1622 470 1.0
1623 471 1.0
1624 472 1.0
1625 473 1.0
1626 474 1.0
1627 475 1.0
1628 476 1.0
1629 477 1.0
1630 478 1.0
1631 479 1.0
1632 480 1.0
1633 481 1.0
1634 482 1.0
1635 483 1.0
1636 484 1.0
1637 485 1.0
1638 486 1.0
1639 487 1.0
1640 488 1.0
1641 489 1.0
1642 490 1.0
1643 491 1.0
1644 492 1.0
1645 493 1.0
1646 494 1.0
1647 495 1.0
1648 496 1.0
1649 497 1.0
1650 498 1.0
1651 499 1.0
1652 500 1.0
1653 501 1.0
1654 502 1.0
1655 503 1.0
1656 504 1.0
1657 505 1.0
1658 506 1.0
1659 507 1.0
1660 508 1.0
1661 509 1.0
1662 510 1.0
1663 511 1.0
1664 512 1.0
1665 513 1.0
1666 514 1.0
1667 515 1.0
1668 516 1.0
1669 517 1.0
1670 518 1.0
1671 519 1.0
1672 520 1.0
1673 521 1.0
1674 522 1.0
1675 523 1.0
1676 524 1.0
1677 525 1.0
1678 526 1.0
1679 527 1.0
1680 528 1.0
1681 529 1.0
1682 530 1.0
1683 531 1.0
1684 532 1.0
1685 533 1.0
1686 534 1.0
1687 535 1.0
1688 536 1.0
1689 537 1.0
1690 538 1.0
1691 539 1.0
1692 540 1.0
1693 541 1.0
1694 542 1.0
1695 543 1.0
1696 544 1.0
1697 545 1.0
1698 546 1.0
1699 547 1.0
1700 548 1.0
1701 549 1.0
1702 550 1.0
1703 551 1.0
1704 552 1.0
1705 553 1.0
1706 554 1.0
1707 555 1.0
1708 556 1.0
1709 557 1.0
1710 558 1.0
1711 559 1.0
1712 560 1.0
1713 561 1.0
1714 562 1.0
1715 563 1.0
1716 564 1.0
1717 565 1.0
1718 566 1.0
1719 567 1.0
1720 568 1.0
1721 569 1.0
1722 570 1.0
1723 571 1.0
1724 572 1.0
1725 573 1.0
1726 574 1.0
1727 575 1.0
1728 576 1.0
1729 577 1.0
1730 578 1.0
1731 579 1.0
1732 580 1.0
1733 581 1.0
1734 582 1.0
1735 583 1.0
1736 584 1.0
1737 585 1.0
1738 586 1.0
1739 587 1.0
1740 588 1.0
1741 589 1.0
1742 590 1.0
1743 591 1.0
1744 592 1.0
1745 593 1.0
1746 594 1.0
1747 595 1.0
1748 596 1.0
1749 597 1.0
1750 598 1.0
1751 599 1.0
1752 600 1.0
1753 601 1.0
1754 602 1.0
1755 603 1.0
1756 604 1.0
1757 605 1.0
1758 606 1.0
1759 607 1.0
1760 608 1.0
1761 609 1.0
1762 610 1.0
1763 611 1.0
1764 612 1.0
1765 613 1.0
1766 614 1.0
1767 615 1.0
1768 616 1.0
1769 617 1.0
1770 618 1.0
1771 619 1.0
1772 620 1.0
1773 621 1.0
1774 622 1.0
1775 623 1.0
1776 624 1.0
1777 625 1.0
1778 626 1.0
1779 627 1.0
1780 628 1.0
1781 629 1.0
1782 630 1.0
1783 631 1.0
1784 632 1.0
1785 633 1.0
1786 634 1.0
1787 635 1.0
1788 636 1.0
1789 637 1.0
1790 638 1.0
1791 639 1.0
1792 640 1.0
1793 641 1.0
1794 642 1.0
1795 643 1.0
1796 644 1.0
1797 645 1.0
1798 646 1.0
1799 647 1.0
1800 648 1.0
1801 649 1.0
1802 650 1.0
1803 651 1.0
1804 652 1.0
1805 653 1.0
1806 654 1.0
1807 655 1.0
1808 656 1.0
1809 657 1.0
1810 658 1.0
1811 659 1.0
1812 660 1.0
1813 661 1.0
1814 662 1.0
1815 663 1.0
1816 664 1.0
1817 665 1.0
1818 666 1.0
1819 667 1.0
1820 668 1.0
1821 669 1.0
1822 670 1.0
1823 671 1.0
1824 672 1.0
1825 673 1.0
1826 674 1.0
1827 675 1.0
1828 676 1.0
1829 677 1.0
1830 678 1.0
1831 679 1.0
1832 680 1.0
1833 681 1.0
1834 682 1.0
1835 683 1.0
1836 684 1.0
1837 685 1.0
1838 686 1.0
1839 687 1.0
1840 688 1.0
1841 689 1.0
1842 690 1.0
1843 691 1.0
1844 692 1.0
1845 693 1.0
1846 694 1.0
1847 695 1.0
1848 696 1.0
1849 697 1.0
1850 698 1.0
1851 699 1.0
1852 700 1.0
1853 701 1.0
1854 702 1.0
1855 703 1.0
1856 704 1.0
1857 705 1.0
1858 706 1.0
1859 707 1.0
1860 708 1.0
1861 709 1.0
1862 710 1.0
1863 711 1.0
1864 712 1.0
1865 713 1.0
1866 714 1.0
1867 715 1.0
1868 716 1.0
1869 717 1.0
1870 718 1.0
1871 719 1.0
1872 720 1.0
1873 721 1.0
1874 722 1.0
1875 723 1.0
1876 724 1.0
1877 725 1.0
1878 726 1.0
1879 727 1.0
1880 728 1.0
1881 729 1.0
1882 730 1.0
1883 731 1.0
1884 732 1.0
1885 733 1.0
1886 734 1.0
1887 735 1.0
1888 736 1.0
1889 737 1.0
1890 738 1.0
1891 739 1.0
1892 740 1.0
1893 741 1.0
1894 742 1.0
1895 743 1.0
1896 744 1.0
1897 745 1.0
1898 746 1.0
1899 747 1.0
1900 748 1.0
1901 749 1.0
1902 750 1.0
1903 751 1.0
1904 752 1.0
1905 753 1.0
1906 754 1.0
1907 755 1.0
1908 756 1.0
1909 757 1.0
1910 758 1.0
1911 759 1.0
1912 760 1.0
1913 761 1.0
1914 762 1.0
1915 763 1.0
1916 764 1.0
1917 765 1.0
1918 766 1.0
1919 767 1.0
1920 768 1.0
1921 769 1.0
1922 770 1.0
1923 771 1.0
1924 772 1.0
1925 773 1.0
1926 774 1.0
1927 775 1.0
1928 776 1.0
1929 777 1.0
1930 778 1.0
1931 779 1.0
1932 780 1.0
1933 781 1.0
1934 782 1.0
1935 783 1.0
1936 784 1.0
1937 785 1.0
1938 786 1.0
1939 787 1.0
1940 788 1.0
1941 789 1.0
1942 790 1.0
1943 791 1.0
1944 792 1.0
1945 793 1.0
1946 794 1.0
1947 795 1.0
1948 796 1.0
1949 797 1.0
1950 798 1.0
1951 799 1.0
1952 800 1.0
1953 801 1.0
1954 802 1.0
1955 803 1.0
1956 804 1.0
1957 805 1.0
1958 806 1.0
1959 807 1.0
1960 808 1.0
1961 809 1.0
1962 810 1.0
1963 811 1.0
1964 812 1.0
1965 813 1.0
1966 814 1.0
1967 815 1.0
1968 816 1.0
1969 817 1.0
1970 818 1.0
1971 819 1.0
1972 820 1.0
1973 821 1.0
1974 822 1.0
1975 823 1.0
1976 824 1.0
1977 825 1.0
1978 826 1.0
1979 827 1.0
1980 828 1.0
1981 829 1.0
1982 830 1.0
1983 831 1.0
1984 832 1.0
1985 833 1.0
1986 834 1.0
1987 835 1.0
1988 836 1.0
1989 837 1.0
1990 838 1.0
1991 839 1.0
1992 840 1.0
1993 841 1.0
1994 842 1.0
1995 843 1.0
1996 844 1.0
1997 845 1.0
1998 846 1.0
1999 847 1.0
2000 848 1.0
2001 849 1.0
2002 850 1.0
2003 851 1.0
2004 852 1.0
2005 853 1.0
2006 854 1.0
2007 855 1.0
2008 856 1.0
2009 857 1.0
2010 858 1.0
2011 859 1.0
2012 860 1.0
2013 861 1.0
2014 862 1.0
2015 863 1.0
2016 864 1.0
2017 865 1.0
2018 866 1.0
2019 867 1.0
2020 868 1.0
2021 869 1.0
2022 870 1.0
2023 871 1.0
2024 872 1.0
2025 873 1.0
2026 874 1.0
2027 875 1.0
2028 876 1.0
2029 877 1.0
2030 878 1.0
2031 879 1.0
2032 880 1.0
2033 881 1.0
2034 882 1.0
2035 883 1.0
2036 884 1.0
2037 885 1.0
2038 886 1.0
2039 887 1.0
2040 888 1.0
2041 889 1.0
2042 890 1.0
2043 891 1.0
2044 892 1.0
2045 893 1.0
2046 894 1.0
2047 895 1.0
2048 896 1.0
2049 897 1.0
2050 898 1.0
2051 899 1.0
2052 900 1.0
2053 901 1.0
2054 902 1.0
2055 903 1.0
2056 904 1.0
2057 905 1.0
2058 906 1.0
2059 907 1.0
2060 908 1.0
2061 909 1.0
2062 910 1.0
2063 911 1.0
2064 912 1.0
2065 913 1.0
2066 914 1.0
2067 915 1.0
2068 916 1.0
2069 917 1.0
2070 918 1.0
2071 919 1.0
2072 920 1.0
2073 921 1.0
2074 922 1.0
2075 923 1.0
2076 924 1.0
2077 925 1.0
2078 926 1.0
2079 927 1.0
2080 928 1.0
2081 929 1.0
2082 930 1.0
2083 931 1.0
2084 932 1.0
2085 933 1.0
2086 934 1.0
2087 935 1.0
2088 936 1.0
2089 937 1.0
2090 938 1.0
2091 939 1.0
2092 940 1.0
2093 941 1.0
2094 942 1.0
2095 943 1.0
2096 944 1.0
2097 945 1.0
2098 946 1.0
2099 947 1.0
2100 948 1.0
2101 949 1.0
2102 950 1.0
2103 951 1.0
2104 952 1.0
2105 953 1.0
2106 954 1.0
2107 955 1.0
2108 956 1.0
2109 957 1.0
2110 958 1.0
2111 959 1.0
2112 960 1.0
2113 961 1.0
2114 962 1.0
2115 963 1.0
2116 964 1.0
2117 965 1.0
2118 966 1.0
2119 967 1.0
2120 968 1.0
2121 969 1.0
2122 970 1.0
2123 971 1.0
2124 972 1.0
2125 973 1.0
2126 974 1.0
2127 975 1.0
2128 976 1.0
2129 977 1.0
2130 978 1.0
2131 979 1.0
2132 980 1.0
2133 981 1.0
2134 982 1.0
2135 983 1.0
2136 984 1.0
2137 985 1.0
2138 986 1.0
2139 987 1.0
2140 988 1.0
2141 989 1.0
2142 990 1.0
2143 991 1.0
2144 992 1.0
2145 993 1.0
2146 994 1.0
2147 995 1.0
2148 996 1.0
2149 997 1.0
2150 998 1.0
2151 999 1.0
2152 1000 1.0
2153 1001 1.0
2154 1002 1.0
2155 1003 1.0
2156 1004 1.0
2157 1005 1.0
2158 1006 1.0
2159 1007 1.0
2160 1008 1.0
2161 1009 1.0
2162 1010 1.0
2163 1011 1.0
2164 1012 1.0
2165 1013 1.0
2166 1014 1.0
2167 1015 1.0
2168 1016 1.0
2169 1017 1.0
2170 1018 1.0
2171 1019 1.0
2172 1020 1.0
2173 1021 1.0
2174 1022 1.0
2175 1023 1.0
2176 1024 1.0
2177 1025 1.0
2178 1026 1.0
2179 1027 1.0
2180 1028 1.0
2181 1029 1.0
2182 1030 1.0
2183 1031 1.0
2184 1032 1.0
2185 1033 1.0
2186 1034 1.0
2187 1035 1.0
2188 1036 1.0
2189 1037 1.0
2190 1038 1.0
2191 1039 1.0
2192 1040 1.0
2193 1041 1.0
2194 1042 1.0
2195 1043 1.0
2196 1044 1.0
2197 1045 1.0
2198 1046 1.0
2199 1047 1.0
2200 1048 1.0
2201 1049 1.0
2202 1050 1.0
2203 1051 1.0
2204 1052 1.0
2205 1053 1.0
2206 1054 1.0
2207 1055 1.0
2208 1056 1.0
2209 1057 1.0
2210 1058 1.0
2211 1059 1.0
2212 1060 1.0
2213 1061 1.0
2214 1062 1.0
2215 1063 1.0
2216 1064 1.0
2217 1065 1.0
2218 1066 1.0
2219 1067 1.0
2220 1068 1.0
2221 1069 1.0
2222 1070 1.0
2223 1071 1.0
2224 1072 1.0
2225 1073 1.0
2226 1074 1.0
2227 1075 1.0
2228 1076 1.0
2229 1077 1.0
2230 1078 1.0
2231 1079 1.0
2232 1080 1.0
2233 1081 1.0
2234 1082 1.0
2235 1083 1.0
2236 1084 1.0
2237 1085 1.0
2238 1086 1.0
2239 1087 1.0
2240 1088 1.0
2241 1089 1.0
2242 1090 1.0
2243 1091 1.0
2244 1092 1.0
2245 1093 1.0
2246 1094 1.0
2247 1095 1.0
2248 1096 1.0
2249 1097 1.0
2250 1098 1.0
2251 1099 1.0
2252 1100 1.0
2253 1101 1.0
2254 1102 1.0
2255 1103 1.0
2256 1104 1.0
2257 1105 1.0
2258 1106 1.0
2259 1107 1.0
2260 1108 1.0
2261 1109 1.0
2262 1110 1.0
2263 1111 1.0
2264 1112 1.0
2265 1113 1.0
2266 1114 1.0
2267 1115 1.0
2268 1116 1.0
2269 1117 1.0
2270 1118 1.0
2271 1119 1.0
2272 1120 1.0
2273 1121 1.0
2274 1122 1.0
2275 1123 1.0
2276 1124 1.0
2277 1125 1.0
2278 1126 1.0
2279 1127 1.0
2280 1128 1.0
2281 1129 1.0
2282 1130 1.0
2283 1131 1.0
2284 1132 1.0
2285 1133 1.0
2286 1134 1.0
2287 1135 1.0
2288 1136 1.0
2289 1137 1.0
2290 1138 1.0
2291 1139 1.0
2292 1140 1.0
2293 1141 1.0
2294 1142 1.0
2295 1143 1.0
2296 1144 1.0
2297 1145 1.0
2298 1146 1.0
2299 1147 1.0
2300 1148 1.0
2301 1149 1.0
2302 1150 1.0
2303 1151 1.0
2304 1152 1.0
2305 1153 1.0
2306 1154 1.0
2307 1155 1.0
2308 1156 1.0
2309 1157 1.0
2310 1158 1.0
2311 1159 1.0
2312 1160 1.0
2313 1161 1.0
2314 1162 1.0
2315 1163 1.0
2316 1164 1.0
2317 1165 1.0
2318 1166 1.0
2319 1167 1.0
2320 1168 1.0
2321 1169 1.0
2322 1170 1.0
2323 1171 1.0
2324 1172 1.0
2325 1173 1.0
2326 1174 1.0
2327 1175 1.0
2328 1176 1.0
2329 1177 1.0
2330 1178 1.0
2331 1179 1.0
2332 1180 1.0
2333 1181 1.0
2334 1182 1.0
2335 1183 1.0
2336 1184 1.0
2337 1185 1.0
2338 1186 1.0
2339 1187 1.0
2340 1188 1.0
2341 1189 1.0
2342 1190 1.0
2343 1191 1.0
2344 1192 1.0
2345 1193 1.0
2346 1194 1.0
2347 1195 1.0
2348 1196 1.0
2349 1197 1.0
2350 1198 1.0
2351 1199 1.0
2352 1200 1.0
2353 1201 1.0
2354 1202 1.0
2355 1203 1.0
2356 1204 1.0
2357 1205 1.0
2358 1206 1.0
2359 1207 1.0
2360 1208 1.0
2361 1209 1.0
2362 1210 1.0
2363 1211 1.0
2364 1212 1.0
2365 1213 1.0
2366 1214 1.0
2367 1215 1.0
2368 1216 1.0
2369 1217 1.0
2370 1218 1.0
2371 1219 1.0
2372 1220 1.0
2373 1221 1.0
2374 1222 1.0
2375 1223 1.0
2376 1224 1.0
2377 1225 1.0
2378 1226 1.0
2379 1227 1.0
2380 1228 1.0
2381 1229 1.0
2382 1230 1.0
2383 1231 1.0
2384 1232 1.0
2385 1233 1.0
2386 1234 1.0
2387 1235 1.0
2388 1236 1.0
2389 1237 1.0
2390 1238 1.0
2391 1239 1.0
2392 1240 1.0
2393 1241 1.0
2394 1242 1.0
2395 1243 1.0
2396 1244 1.0
2397 1245 1.0
2398 1246 1.0
2399 1247 1.0
2400 1248 1.0
2401 1249 1.0
2402 1250 1.0
2403 1251 1.0
2404 1252 1.0
2405 1253 1.0
2406 1254 1.0
2407 1255 1.0
2408 1256 1.0
2409 1257 1.0
2410 1258 1.0
2411 1259 1.0
2412 1260 1.0
2413 1261 1.0
2414 1262 1.0
2415 1263 1.0
2416 1264 1.0
2417 1265 1.0
2418 1266 1.0
2419 1267 1.0
2420 1268 1.0
2421 1269 1.0
2422 1270 1.0
2423 1271 1.0
2424 1272 1.0
2425 1273 1.0
2426 1274 1.0
2427 1275 1.0
2428 1276 1.0
2429 1277 1.0
2430 1278 1.0
2431 1279 1.0
2432 1280 1.0
2433 1281 1.0
2434 1282 1.0
2435 1283 1.0
2436 1284 1.0
2437 1285 1.0
2438 1286 1.0
2439 1287 1.0
2440 1288 1.0
2441 1289 1.0
2442 1290 1.0
2443 1291 1.0
2444 1292 1.0
2445 1293 1.0
2446 1294 1.0
2447 1295 1.0
2448 1296 1.0
2449 4 0.5
2450 1 0.25
2450 2 -0.3535533905932738
2450 4 0.25
2451 9 1.0
2452 16 0.5
2453 16 0.25
2453 23 -0.3535533905932738
2453 25 0.25
2454 36 1.0
2455 49 0.5
2456 49 0.25
2456 62 -0.3535533905932738
2456 64 0.25
2457 81 1.0
2458 100 0.5
2459 100 0.25
2459 119 0.3535533905932738
2459 121 0.25
2460 144 1.0
2461 169 0.5
2462 169 0.25
2462 194 -0.3535533905932738
2462 196 0.25
2463 225 1.0
2464 256 0.5
2465 256 0.25
2465 287 -0.3535533905932738
2465 289 0.25
2466 324 1.0
2467 361 0.5
2468 361 0.25
2468 398 0.3535533905932738
2468 400 0.25
2469 441 1.0
2470 484 0.5
2471 484 0.25
2471 527 0.3535533905932738
2471 529 0.25
2472 576 1.0
2473 625 0.5
2474 625 0.25
2474 674 0.3535533905932738
2474 676 0.25
2475 729 1.0
2476 784 0.5
2477 784 0.25
2477 839 0.3535533905932738
2477 841 0.25
2478 900 1.0
2479 961 0.5
2480 961 0.25
2480 1022 0.3535533905932738
2480 1024 0.25
2481 1089 1.0
2482 1225 0.5
2483 1156 0.25
2483 1223 0.3535533905932738
2483 1225 0.25
2484 1296 1.0
2485 1 1.0
2485 4 1.0
2485 9 1.0
2486 10 1.0
2486 19 1.0
2486 30 1.0
2487 37 1.0
2487 52 1.0
2487 69 1.0
2488 82 1.0
2488 103 1.0
2488 126 1.0
2489 145 1.0
2489 172 1.0
2489 201 1.0
2490 226 1.0
2490 259 1.0
2490 294 1.0
2491 325 1.0
2491 364 1.0
2491 405 1.0
2492 442 1.0
2492 487 1.0
2492 534 1.0
2493 577 1.0
2493 628 1.0
2493 681 1.0
2494 730 1.0
2494 787 1.0
2494 846 1.0
2495 901 1.0
2495 964 1.0
2495 1029 1.0
2496 1090 1.0
2496 1159 1.0
2496 1230 1.0
2497 11 -1.0
2497 20 -1.0
2497 31 -1.0
2498 16 1.0
2498 25 1.0
2498 36 1.0
2499 43 1.0
2499 58 1.0
2499 75 1.0
2500 88 1.0
2500 109 1.0
2500 132 1.0
2501 151 1.0
2501 178 1.0
2501 207 1.0
2502 232 1.0
2502 265 1.0
2502 300 1.0
2503 331 1.0
2503 370 1.0
2503 411 1.0
2504 448 1.0
2504 493 1.0
2504 540 1.0
2505 583 1.0
2505 634 1.0
2505 687 1.0
2506 736 1.0
2506 793 1.0
2506 852 1.0
2507 907 1.0
2507 970 1.0
2507 1035 1.0
2508 1096 1.0
2508 1165 1.0
2508 1236 1.0
2509 38 -1.0
2509 53 -1.0
2509 70 -1.0
2510 44 -1.0
2510 59 -1.0
2510 76 -1.0
2511 49 1.0
2511 64 1.0
2511 81 1.0
2512 94 1.0
2512 115 1.0
2512 138 1.0
2513 157 1.0
2513 184 1.0
2513 213 1.0
2514 238 1.0
2514 271 1.0
2514 306 1.0
2515 337 1.0
2515 376 1.0
2515 417 1.0
2516 454 1.0
2516 499 1.0
2516 546 1.0
2517 589 1.0
2517 640 1.0
2517 693 1.0
2518 742 1.0
2518 799 1.0
2518 858 1.0
2519 913 1.0
2519 976 1.0
2519 1041 1.0
2520 1102 1.0
2520 1171 1.0
2520 1242 1.0
2521 83 -1.0
2521 104 -1.0
2521 127 -1.0
2522 89 -1.0
2522 110 -1.0
2522 133 -1.0
2523 95 -1.0
2523 116 -1.0
2523 139 -1.0
2524 100 1.0
2524 121 1.0
2524 144 1.0
2525 163 1.0
2525 190 1.0
2525 219 1.0
2526 244 1.0
2526 277 1.0
2526 312 1.0
2527 343 1.0
2527 382 1.0
2527 423 1.0
2528 460 1.0
2528 505 1.0
2528 552 1.0
2529 595 1.0
2529 646 1.0
2529 699 1.0
2530 748 1.0
2530 805 1.0
2530 864 1.0
2531 919 1.0
2531 982 1.0
2531 1047 1.0
2532 1108 1.0
2532 1177 1.0
2532 1248 1.0
2533 146 -1.0
2533 173 -1.0
2533 202 -1.0
2534 152 -1.0
2534 179 -1.0
2534 208 -1.0
2535 158 -1.0
2535 185 -1.0
2535 214 -1.0
2536 164 -1.0
2536 191 -1.0
2536 220 -1.0
2537 169 1.0
2537 196 1.0
2537 225 1.0
2538 250 1.0
2538 283 1.0
2538 318 1.0
2539 349 1.0
2539 388 1.0
2539 429 1.0
2540 466 1.0
2540 511 1.0
2540 558 1.0
2541 601 1.0
2541 652 1.0
2541 705 1.0
2542 754 1.0
2542 811 1.0
2542 870 1.0
2543 925 1.0
2543 988 1.0
2543 1053 1.0
2544 1114 1.0
2544 1183 1.0
2544 1254 1.0
2545 227 -1.0
2545 260 -1.0
2545 295 -1.0
2546 233 -1.0
2546 266 -1.0
2546 301 -1.0
2547 239 -1.0
2547 272 -1.0
2547 307 -1.0
2548 245 -1.0
2548 278 -1.0
2548 313 -1.0
2549 251 -1.0
2549 284 -1.0
2549 319 -1.0
2550 256 1.0
2550 289 1.0
2550 324 1.0
2551 355 1.0
2551 394 1.0
2551 435 1.0
2552 472 1.0
2552 517 1.0
2552 564 1.0
2553 607 1.0
2553 658 1.0
2553 711 1.0
2554 760 1.0
2554 817 1.0
2554 876 1.0
2555 931 1.0
2555 994 1.0
2555 1059 1.0
2556 1120 1.0
2556 1189 1.0
2556 1260 1.0
2557 326 -1.0
2557 365 -1.0
2557 406 -1.0
2558 332 -1.0
2558 371 -1.0
2558 412 -1.0
2559 338 -1.0
2559 377 -1.0
2559 418 -1.0
2560 344 -1.0
2560 383 -1.0
2560 424 -1.0
2561 350 -1.0
2561 389 -1.0
2561 430 -1.0
2562 356 -1.0
2562 395 -1.0
2562 436 -1.0
2563 361 1.0
2563 400 1.0
2563 441 1.0
2564 478 1.0
2564 523 1.0
2564 570 1.0
2565 613 1.0
2565 664 1.0
2565 717 1.0
2566 766 1.0
2566 823 1.0
2566 882 1.0
2567 937 1.0
2567 1000 1.0
2567 1065 1.0
2568 1126 1.0
2568 1195 1.0
2568 1266 1.0
2569 443 -1.0
2569 488 -1.0
2569 535 -1.0
2570 449 -1.0
2570 494 -1.0
2570 541 -1.0
2571 455 -1.0
2571 500 -1.0
2571 547 -1.0
2572 461 -1.0
2572 506 -1.0
2572 553 -1.0
2573 467 -1.0
2573 512 -1.0
2573 559 -1.0
2574 473 -1.0
2574 518 -1.0
2574 565 -1.0
2575 479 -1.0
2575 524 -1.0
2575 571 -1.0
2576 484 1.0
2576 529 1.0
2576 576 1.0
2577 619 1.0
2577 670 1.0
2577 723 1.0
2578 772 1.0
2578 829 1.0
2578 888 1.0
2579 943 1.0
2579 1006 1.0
2579 1071 1.0
2580 1132 1.0
2580 1201 1.0
2580 1272 1.0
2581 578 -1.0
2581 629 -1.0
2581 682 -1.0
2582 584 -1.0
2582 635 -1.0
2582 688 -1.0
2583 590 -1.0
2583 641 -1.0
2583 694 -1.0
2584 596 -1.0
2584 647 -1.0
2584 700 -1.0
2585 602 -1.0
2585 653 -1.0
2585 706 -1.0
2586 608 -1.0
2586 659 -1.0
2586 712 -1.0
2587 614 -1.0
2587 665 -1.0
2587 718 -1.0
2588 620 -1.0
2588 671 -1.0
2588 724 -1.0
2589 625 1.0
2589 676 1.0
2589 729 1.0
2590 778 1.0
2590 835 1.0
2590 894 1.0
2591 949 1.0
2591 1012 1.0
2591 1077 1.0
2592 1138 1.0
2592 1207 1.0
2592 1278 1.0
2593 731 -1.0
2593 788 -1.0
2593 847 -1.0
2594 737 -1.0
2594 794 -1.0
2594 853 -1.0
2595 743 -1.0
2595 800 -1.0
2595 859 -1.0
2596 749 -1.0
2596 806 -1.0
2596 865 -1.0
2597 755 -1.0
2597 812 -1.0
2597 871 -1.0
2598 761 -1.0
2598 818 -1.0
2598 877 -1.0
2599 767 -1.0
2599 824 -1.0
2599 883 -1.0
2600 773 -1.0
2600 830 -1.0
2600 889 -1.0
2601 779 -1.0
2601 836 -1.0
2601 895 -1.0
2602 784 1.0
2602 841 1.0
2602 900 1.0
2603 955 1.0
2603 1018 1.0
2603 1083 1.0
2604 1144 1.0
2604 1213 1.0
2604 1284 1.0
2605 902 -1.0
2605 965 -1.0
2605 1030 -1.0
2606 908 -1.0
2606 971 -1.0
2606 1036 -1.0
2607 914 -1.0
2607 977 -1.0
2607 1042 -1.0
2608 920 -1.0
2608 983 -1.0
2608 1048 -1.0
2609 926 -1.0
2609 989 -1.0
2609 1054 -1.0
2610 932 -1.0
2610 995 -1.0
2610 1060 -1.0
2611 938 -1.0
2611 1001 -1.0
2611 1066 -1.0
2612 944 -1.0
2612 1007 -1.0
2612 1072 -1.0
2613 950 -1.0
2613 1013 -1.0
2613 1078 -1.0
2614 956 -1.0
2614 1019 -1.0
2614 1084 -1.0
2615 961 1.0
2615 1024 1.0
2615 1089 1.0
2616 1150 1.0
2616 1219 1.0
2616 1290 1.0
2617 1091 -1.0
2617 1160 -1.0
2617 1231 -1.0
2618 1097 -1.0
2618 1166 -1.0
2618 1237 -1.0
2619 1103 -1.0
2619 1172 -1.0
2619 1243 -1.0
2620 1109 -1.0
2620 1178 -1.0
2620 1249 -1.0
2621 1115 -1.0
2621 1184 -1.0
2621 1255 -1.0
2622 1121 -1.0
2622 1190 -1.0
2622 1261 -1.0
2623 1127 -1.0
2623 1196 -1.0
2623 1267 -1.0
2624 1133 -1.0
2624 1202 -1.0
2624 1273 -1.0
2625 1139 -1.0
2625 1208 -1.0
2625 1279 -1.0
2626 1145 -1.0
2626 1214 -1.0
2626 1285 -1.0
2627 1151 -1.0
2627 1220 -1.0
2627 1291 -1.0
2628 1 1.0
2628 4 1.0
2628 9 1.0
2628 16 1.0
2628 25 1.0
2628 36 1.0
2628 49 1.0
2628 64 1.0
2628 81 1.0
2628 100 1.0
2628 121 1.0
2628 144 1.0
2628 169 1.0
2628 196 1.0
2628 225 1.0
2628 256 1.0
2628 289 1.0
2628 324 1.0
2628 361 1.0
2628 400 1.0
2628 441 1.0
2628 484 1.0
2628 529 1.0
2628 576 1.0
2628 625 1.0
2628 676 1.0
2628 729 1.0
2628 784 1.0
2628 841 1.0
2628 900 1.0
2628 961 1.0
2628 1024 1.0
2628 1089 1.0
2628 1156 1.0
2628 1225 1.0
2628 1296 1.0

BCOORD
162
2449 3.095936173420447e-07
2450 1.211149421809915e-05
2451 0.08327349708357301
2452 3.095936173420447e-07
2453 1.7806630662052514e-05
2454 0.08327349708357301
2455 1.211149421809915e-05
2456 3.095936173420447e-07
2457 0.08327349708357301
2458 1.7806630662052514e-05
2459 3.095936173420447e-07
2460 0.08327349708357301
2461 2.9608531262809618e-05
2462 1.211149421809915e-05
2463 0.08327349708357301
2464 3.095936173420447e-07
2465 1.7806630662052514e-05
2466 0.08327349708357301
2467 1.211149421809915e-05
2468 2.9608531262809618e-05
2469 0.08327349708357301
2470 1.7806630662052514e-05
2471 3.095936173420447e-07
2472 0.08327349708357301
2473 2.9608531262809618e-05
2474 1.7806630662052514e-05
2475 0.08327349708357301
2476 3.095936173420447e-07
2477 1.211149421809915e-05
2478 0.08327349708357301
2479 1.211149421809915e-05
2480 2.9608531262809618e-05
2481 0.08327349708357301
2482 1.211149421809915e-05
2483 3.095936173420447e-07
2484 0.08327349708357301
2485 0.08333333333333333
2486 0.11551752146754397
2487 0.11667265798346468
2488 0.11667265798346468
2489 0.11435094813749536
2490 0.11551752146754397
2491 0.11394948847957567
2492 0.11593030242207014
2493 0.11435094813749536
2494 0.11551752146754397
2495 0.11593030242207014
2496 0.11394948847957567
2498 0.08333333333333333
2499 0.11667265798346468
2500 0.11667265798346468
2501 0.11551752146754397
2502 0.11435094813749536
2503 0.11593030242207014
2504 0.11394948847957567
2505 0.11551752146754397
2506 0.11435094813749536
2507 0.11394948847957567
2508 0.11593030242207014
2509 0.0011667654722763397
2510 -0.0011667654722763397
2511 0.08333333333333333
2512 0.11551752146754397
2513 0.11593030242207014
2514 0.11394948847957567
2515 0.11435094813749536
2516 0.11551752146754397
2517 0.11394948847957567
2518 0.11593030242207014
2519 0.11435094813749536
2520 0.11551752146754397
2521 -0.0011667654722763397
2522 0.0011667654722763397
2524 0.08333333333333333
2525 0.11394948847957567
2526 0.11593030242207014
2527 0.11551752146754397
2528 0.11435094813749536
2529 0.11593030242207014
2530 0.11394948847957567
2531 0.11551752146754397
2532 0.11435094813749536
2533 0.001980814606100509
2535 0.0015837358927087263
2536 0.00041708593795000405
2537 0.08333333333333333
2538 0.11551752146754397
2539 0.11667265798346468
2540 0.11667265798346468
2541 0.11435094813749536
2542 0.11551752146754397
2543 0.11394948847957567
2544 0.11593030242207014
2546 0.001980814606100509
2547 0.00041708593795000405
2548 0.0015837358927087263
2550 0.08333333333333333
2551 0.11667265798346468
2552 0.11667265798346468
2553 0.11551752146754397
2554 0.11435094813749536
2555 0.11593030242207014
2556 0.11394948847957567
2557 0.00041708593795000405
2558 0.0015837358927087263
2559 0.001980814606100509
2561 0.00116676547227634
2562 -0.00116676547227634
2563 0.08333333333333333
2564 0.11551752146754397
2565 0.11593030242207014
2566 0.11394948847957567
2567 0.11435094813749536
2568 0.11551752146754397
2569 0.0015837358927087263
2570 0.00041708593795000405
2572 0.001980814606100509
2573 -0.00116676547227634
2574 0.00116676547227634
2576 0.08333333333333333
2577 0.11394948847957567
2578 0.11593030242207014
2579 0.11551752146754397
2580 0.11435094813749536
2581 -0.0019808146061005088
2583 -0.0004170859379500037
2584 -0.0015837358927087263
2585 0.0019808146061005088
2587 0.0015837358927087266
2588 0.00041708593795000345
2589 0.08333333333333333
2590 0.11551752146754397
2591 0.11667265798346468
2592 0.11667265798346468
2594 -0.0019808146061005088
2595 -0.0015837358927087263
2596 -0.0004170859379500037
2598 0.0019808146061005088
2599 0.00041708593795000345
2600 0.0015837358927087266
2602 0.08333333333333333
2603 0.11667265798346468
2604 0.11667265798346468
2605 -0.0015837358927087263
2606 -0.0004170859379500037
2607 -0.0019808146061005088
2609 0.00041708593795000345
2610 0.0015837358927087266
2611 0.0019808146061005088
2613 0.00116676547227634
2614 -0.00116676547227634
2615 0.08333333333333333
2616 0.11551752146754397
2617 -0.0004170859379500037
2618 -0.0015837358927087263
2620 -0.0019808146061005088
2621 0.0015837358927087266
2622 0.00041708593795000345
2624 0.0019808146061005088
2625 -0.00116676547227634
2626 0.00116676547227634
2628 1.0
